n = 40;
lu = [|73, 530
      |619, 1273
      |-1123, -877
      |-678, -46
      |-1481, -414
      |-1123, -680
      |-1564, 729
      |-1190, -959
      |504, 1572
      |-359, 1221
      |996, 1240
      |-50, 820
      |59, 1537
      |1144, 1231
      |-265, -133
      |-1299, -213
      |-442, 928
      |-1142, -949
      |-1314, 493
      |-1213, 810
      |-495, -309
      |-1159, 961
      |-1457, -414
      |-189, -20
      |-1208, 354
      |-820, 350
      |-1068, -828
      |-542, 1460
      |-585, 1580
      |-1423, -1399
      |1159, 1184
      |187, 1307
      |-1446, 1425
      |1245, 1322
      |1076, 1418
      |-254, -87
      |328, 982
      |258, 816
      |-984, 614
      |-645, 380|];
